牛客/2019牛客暑期多校训练营/数据/9_D_Knapsack Cryptosystem/16.in
36 511758371331035
7488095208330 22464285624990 52416666458310 50407475155987 61365282968001 363181299437 20632786920579 18252618215206 39967152930483 9960199371872 56255738679857 15265971213206 19472785267429 34624757674492 42287756406259 519718066005 3305034911428 55883164116027 30394515508827 43428190086117 48621320030259 42915836987407 41008121632195 36540872470901 53763032577448 26104889605545 34007821008195 35923859680580 24386083708693 16565547452539 30937936943972 31977617873891 8111121990819 52059505253959 45503318442060 34245098438447
